TCS_Benchmarks/redos_fix/snort1_output_distinct_2551_2550_1_0.txt
[^\n\r]*
([^\n\r]*)([wW][aA][tT][cC][hH][dD][oO][gG])([^\n\r]*)
[^\n\r]*